variable    DATA_FILE        string @DATA_FILE
variable    N_STEPS          equal @STEPS
variable    TEMP             equal @TEMP
variable    SEED             equal @SEED
variable    RES_FORCE        equal @RES_FORCE
variable    DIST1            equal @DIST1
variable    DIST2            equal @DIST2

variable    TAU_T            equal 0.1
variable    TAU_P            equal 0.5
variable    TIME_CONST       equal 0.1
variable    PRES             equal -1
variable    THERMO_FREQ      equal 100
variable    DUMP_FREQ        equal 100
variable    SAMPLE_FREQ      equal 100

units          metal
boundary       p p p
atom_style     atomic
atom_modify    map yes
neighbor       1.0 bin

if "${restart} > 0" then "read_restart md.restart.*" else "read_data ${DATA_FILE}"

variable    Ag               equal 1
variable    O                equal 2

mass ${Ag} 107.8682
mass ${O} 15.999

pair_style deepmd @DP_MODELS out_freq ${THERMO_FREQ} out_file model_devi.out
pair_coeff * *

if "${restart} == 0" then "velocity all create ${TEMP} ${SEED}"
fix            1 all nve
fix            2 all temp/csvr ${TEMP} ${TEMP} 0.1 5434
fix            bound fixed_atoms restrain bond 1 2 ${FORCE} ${FORCE} ${DIST1} ${DIST2}
fix            cll_plumed all plumed plumedfile plumed.in outfile plumed.out

thermo_style custom step temp pe ke etotal vol lx ly lz xy xz yz
thermo       ${THERMO_FREQ}

dump         1 all custom ${DUMP_FREQ} dump.lammpstrj id type element x y z fx fy fz
restart      10000 md.restart

timestep 0.000500
run      ${N_STEPS} upto